<?xml version = "1.0" standalone="yes"?>
<!-- This file has been generated by DOcplex version 2.23.222  -->
<CPLEXSolution version="1.0">
 <header
   problemName="CVRP"
   objectiveValue="11634.7"
  />
 <variables>
  <variable name="x_0_1" index="0" value="1.00000"/>
  <variable name="x_0_3" index="2" value="1.00000"/>
  <variable name="x_0_4" index="3" value="1.00000"/>
  <variable name="x_0_5" index="4" value="1.00000"/>
  <variable name="x_0_8" index="7" value="1.00000"/>
  <variable name="x_0_9" index="8" value="1.00000"/>
  <variable name="x_0_10" index="9" value="1.00000"/>
  <variable name="x_0_17" index="16" value="1.00000"/>
  <variable name="x_0_18" index="17" value="1.00000"/>
  <variable name="x_0_19" index="18" value="1.00000"/>
  <variable name="x_1_0" index="19" value="1.00000"/>
  <variable name="x_2_14" index="51" value="1.00000"/>
  <variable name="x_3_7" index="63" value="1.00000"/>
  <variable name="x_4_2" index="78" value="1.00000"/>
  <variable name="x_5_13" index="107" value="1.00000"/>
  <variable name="x_6_0" index="114" value="1.00000"/>
  <variable name="x_7_0" index="133" value="1.00000"/>
  <variable name="x_8_0" index="152" value="1.00000"/>
  <variable name="x_9_12" index="182" value="1.00000"/>
  <variable name="x_10_11" index="200" value="1.00000"/>
  <variable name="x_11_15" index="223" value="1.00000"/>
  <variable name="x_12_0" index="228" value="1.00000"/>
  <variable name="x_13_0" index="247" value="1.00000"/>
  <variable name="x_14_0" index="266" value="1.00000"/>
  <variable name="x_15_0" index="285" value="1.00000"/>
  <variable name="x_16_0" index="304" value="1.00000"/>
  <variable name="x_17_16" index="339" value="1.00000"/>
  <variable name="x_18_6" index="348" value="1.00000"/>
  <variable name="x_19_0" index="361" value="1.00000"/>
  <variable name="u_1" index="380" value="24.00000"/>
  <variable name="u_2" index="381" value="24.00000"/>
  <variable name="u_3" index="382" value="7.00000"/>
  <variable name="u_4" index="383" value="7.00000"/>
  <variable name="u_5" index="384" value="6.00000"/>
  <variable name="u_6" index="385" value="22.00000"/>
  <variable name="u_7" index="386" value="24.00000"/>
  <variable name="u_8" index="387" value="21.00000"/>
  <variable name="u_9" index="388" value="16.00000"/>
  <variable name="u_10" index="389" value="11.00000"/>
  <variable name="u_11" index="390" value="23.00000"/>
  <variable name="u_12" index="391" value="26.00000"/>
  <variable name="u_13" index="392" value="26.00000"/>
  <variable name="u_14" index="393" value="25.00000"/>
  <variable name="u_15" index="394" value="26.00000"/>
  <variable name="u_16" index="395" value="23.00000"/>
  <variable name="u_17" index="396" value="20.00000"/>
  <variable name="u_18" index="397" value="6.00000"/>
  <variable name="u_19" index="398" value="26.00000"/>
 </variables>
</CPLEXSolution>
